p tw 86 1259
0 1
0 2
0 3
0 4
0 5
0 6
0 7
0 8
0 9
0 10
0 19
0 20
0 21
0 22
0 23
0 24
0 25
0 26
0 29
0 39
0 41
0 44
0 55
0 56
0 59
0 68
0 74
0 33
0 50
0 70
0 75
0 14
0 30
0 34
0 35
0 49
0 53
0 67
0 80
0 81
0 17
0 60
0 63
1 2
1 3
1 4
1 5
1 6
1 7
1 8
1 9
1 10
1 16
1 21
1 38
1 41
1 48
1 49
1 50
1 51
1 52
1 53
1 12
1 35
1 58
1 71
1 74
1 76
1 77
1 47
1 54
1 55
1 64
1 82
2 3
2 4
2 5
2 6
2 7
2 8
2 9
2 10
2 28
2 30
2 35
2 42
2 43
2 44
2 45
2 46
2 47
2 29
2 39
2 41
2 55
2 56
2 59
2 68
2 74
2 26
2 31
2 37
2 52
2 53
2 57
2 78
2 79
3 4
3 5
3 6
3 7
3 8
3 9
3 10
3 11
3 12
3 13
3 14
3 15
3 16
3 17
3 18
3 19
3 20
3 24
3 37
3 38
3 39
3 40
3 41
3 45
3 53
3 56
3 61
3 67
3 80
3 82
4 5
4 6
4 7
4 8
4 9
4 10
4 23
4 33
4 36
4 43
4 45
4 56
4 60
4 61
4 62
4 63
4 13
4 34
4 48
4 52
4 64
4 65
4 66
4 19
4 20
4 37
4 46
4 59
4 72
4 73
4 12
4 16
4 18
4 21
4 24
4 38
4 53
4 54
4 26
4 50
4 70
4 75
4 14
4 67
4 78
4 80
4 81
4 82
4 30
4 35
4 49
4 40
4 44
4 47
4 51
4 55
4 71
4 76
5 6
5 7
5 8
5 9
5 10
5 13
5 34
5 48
5 52
5 56
5 64
5 65
5 66
5 19
5 20
5 37
5 46
5 59
5 72
5 73
5 24
5 26
5 33
5 50
5 70
5 75
5 16
5 76
5 78
5 31
5 53
5 57
5 79
6 7
6 8
6 9
6 10
6 16
6 26
6 33
6 64
6 72
6 76
6 78
6 23
6 25
6 27
6 38
6 52
6 69
6 81
7 8
7 9
7 10
7 28
7 30
7 35
7 42
7 43
7 44
7 45
7 46
7 47
7 13
7 14
7 23
7 32
7 72
7 79
7 83
7 17
7 34
7 41
7 49
7 60
7 63
7 67
7 25
7 27
7 33
7 38
7 52
7 64
7 69
7 81
8 9
8 10
8 19
8 20
8 21
8 22
8 23
8 24
8 25
8 26
8 17
8 30
8 38
8 44
8 46
8 48
8 59
8 60
8 16
8 33
8 64
8 72
8 76
8 78
8 11
8 45
8 53
8 56
8 61
8 67
8 80
8 82
9 10
9 24
9 26
9 33
9 50
9 70
9 75
9 13
9 14
9 23
9 32
9 44
9 72
9 79
9 83
10 11
10 12
10 13
10 14
10 15
10 16
10 17
10 18
10 21
10 35
10 52
10 58
10 71
10 74
10 76
10 77
10 26
10 33
10 64
10 72
10 78
11 12
11 13
11 14
11 15
11 16
11 17
11 18
11 22
11 25
11 31
11 38
11 49
11 55
11 56
11 57
11 58
11 45
11 53
11 61
11 67
11 80
11 82
12 13
12 14
12 15
12 16
12 17
12 18
12 19
12 21
12 24
12 38
12 53
12 54
12 59
12 35
12 52
12 58
12 71
12 74
12 76
12 77
12 23
12 30
12 31
12 42
12 48
12 78
12 85
13 14
13 15
13 16
13 17
13 18
13 19
13 20
13 24
13 37
13 38
13 39
13 40
13 41
13 28
13 29
13 32
13 33
13 42
13 48
13 52
13 54
13 34
13 56
13 64
13 65
13 66
13 59
13 67
13 70
13 78
13 80
13 81
13 82
13 23
13 44
13 72
13 79
13 83
14 15
14 16
14 17
14 18
14 56
14 59
14 67
14 70
14 78
14 80
14 81
14 82
14 23
14 32
14 44
14 72
14 79
14 83
14 30
14 34
14 35
14 49
14 53
15 16
15 17
15 18
16 17
16 18
16 19
16 20
16 24
16 37
16 38
16 39
16 40
16 41
16 21
16 48
16 49
16 50
16 51
16 52
16 53
16 28
16 29
16 32
16 33
16 42
16 54
16 59
16 26
16 64
16 72
16 76
16 78
16 35
16 44
16 58
16 71
16 77
16 84
17 18
17 26
17 30
17 38
17 44
17 46
17 48
17 59
17 60
17 28
17 33
17 43
17 47
17 50
17 62
17 67
17 68
17 23
17 34
17 41
17 49
17 63
18 19
18 21
18 24
18 38
18 53
18 54
18 59
18 23
18 30
18 31
18 42
18 48
18 71
18 78
18 85
19 20
19 21
19 22
19 23
19 24
19 25
19 26
19 37
19 38
19 39
19 40
19 41
19 46
19 59
19 72
19 73
19 53
19 54
20 21
20 22
20 23
20 24
20 25
20 26
20 37
20 38
20 39
20 40
20 41
20 46
20 59
20 72
20 73
21 22
21 23
21 24
21 25
21 26
21 38
21 41
21 48
21 49
21 50
21 51
21 52
21 53
21 54
21 59
21 35
21 58
21 71
21 74
21 76
21 77
22 23
22 24
22 25
22 26
22 31
22 38
22 49
22 55
22 56
22 57
22 58
23 24
23 25
23 26
23 33
23 36
23 43
23 45
23 56
23 60
23 61
23 62
23 63
23 28
23 57
23 64
23 67
23 69
23 70
23 71
23 32
23 44
23 72
23 79
23 83
23 34
23 41
23 49
23 30
23 31
23 42
23 48
23 78
23 85
23 27
23 38
23 52
23 81
24 25
24 26
24 37
24 38
24 39
24 40
24 41
24 53
24 54
24 59
24 33
24 50
24 70
24 75
25 26
25 27
25 28
25 29
25 30
25 31
25 32
25 33
25 34
25 35
25 36
25 38
25 49
25 55
25 56
25 57
25 58
25 52
25 64
25 69
25 81
26 30
26 38
26 44
26 46
26 48
26 59
26 60
26 28
26 33
26 43
26 47
26 50
26 62
26 67
26 68
26 70
26 75
26 64
26 72
26 76
26 78
26 31
26 37
26 52
26 53
26 57
26 79
27 28
27 29
27 30
27 31
27 32
27 33
27 34
27 35
27 36
27 38
27 52
27 64
27 69
27 81
28 29
28 30
28 31
28 32
28 33
28 34
28 35
28 36
28 42
28 43
28 44
28 45
28 46
28 47
28 38
28 48
28 52
28 54
28 50
28 62
28 67
28 68
28 57
28 61
28 63
28 64
28 69
28 70
28 71
29 30
29 31
29 32
29 33
29 34
29 35
29 36
29 38
29 42
29 48
29 52
29 54
29 39
29 41
29 44
29 55
29 56
29 59
29 68
29 74
30 31
30 32
30 33
30 34
30 35
30 36
30 42
30 43
30 44
30 45
30 46
30 47
30 38
30 48
30 59
30 60
30 49
30 53
30 67
30 80
30 81
30 71
30 78
30 85
31 32
31 33
31 34
31 35
31 36
31 38
31 49
31 55
31 56
31 57
31 58
31 37
31 52
31 53
31 78
31 79
31 42
31 48
31 71
31 85
32 33
32 34
32 35
32 36
32 38
32 42
32 48
32 52
32 54
32 44
32 72
32 79
32 83
33 34
33 35
33 36
33 38
33 42
33 48
33 52
33 54
33 43
33 45
33 56
33 60
33 61
33 62
33 63
33 47
33 50
33 67
33 68
33 70
33 75
33 64
33 72
33 76
33 78
33 69
33 81
34 35
34 36
34 48
34 52
34 56
34 64
34 65
34 66
34 49
34 53
34 67
34 80
34 81
34 41
34 44
34 60
34 63
35 36
35 42
35 43
35 44
35 45
35 46
35 47
35 52
35 58
35 71
35 74
35 76
35 77
35 49
35 53
35 67
35 80
35 81
35 38
35 84
36 43
36 45
36 56
36 60
36 61
36 62
36 63
36 40
36 44
36 52
36 54
36 64
36 81
37 38
37 39
37 40
37 41
37 46
37 59
37 72
37 73
37 52
37 53
37 57
37 78
37 79
38 39
38 40
38 41
38 48
38 49
38 50
38 51
38 52
38 53
38 42
38 54
38 55
38 56
38 57
38 58
38 44
38 46
38 59
38 60
38 71
38 76
38 77
38 84
38 64
38 69
38 81
39 40
39 41
39 44
39 55
39 56
39 59
39 68
39 74
40 41
40 44
40 45
40 52
40 54
40 64
40 81
41 48
41 49
41 50
41 51
41 52
41 53
41 44
41 55
41 56
41 59
41 68
41 74
41 60
41 63
41 67
42 43
42 44
42 45
42 46
42 47
42 48
42 52
42 54
42 71
42 78
42 85
43 44
43 45
43 46
43 47
43 56
43 60
43 61
43 62
43 63
43 50
43 67
43 68
44 45
44 46
44 47
44 48
44 59
44 60
44 55
44 56
44 68
44 74
44 72
44 79
44 83
44 49
44 63
44 67
44 52
44 58
44 71
44 76
44 77
44 84
44 54
44 64
44 81
45 46
45 47
45 56
45 60
45 61
45 62
45 63
45 52
45 54
45 64
45 81
45 53
45 67
45 80
45 82
46 47
46 48
46 59
46 60
46 72
46 73
47 50
47 62
47 67
47 68
47 51
47 54
47 55
47 64
47 71
47 76
47 82
48 49
48 50
48 51
48 52
48 53
48 54
48 59
48 60
48 56
48 64
48 65
48 66
48 71
48 78
48 85
49 50
49 51
49 52
49 53
49 55
49 56
49 57
49 58
49 67
49 80
49 81
49 60
49 63
49 71
49 76
49 77
49 84
50 51
50 52
50 53
50 62
50 67
50 68
50 70
50 75
51 52
51 53
51 54
51 55
51 64
51 71
51 76
51 82
52 53
52 54
52 56
52 64
52 65
52 66
52 58
52 71
52 74
52 76
52 77
52 57
52 78
52 79
52 84
52 81
52 69
53 54
53 59
53 57
53 78
53 79
53 67
53 80
53 81
53 56
53 61
53 82
54 59
54 64
54 81
54 55
54 71
54 76
54 82
55 56
55 57
55 58
55 59
55 68
55 74
55 64
55 71
55 76
55 82
56 57
56 58
56 60
56 61
56 62
56 63
56 64
56 65
56 66
56 59
56 68
56 74
56 67
56 70
56 78
56 80
56 81
56 82
57 58
57 61
57 63
57 64
57 67
57 69
57 70
57 71
57 78
57 79
58 71
58 74
58 76
58 77
58 84
59 60
59 72
59 73
59 68
59 74
59 67
59 70
59 78
59 80
59 81
59 82
60 61
60 62
60 63
60 67
61 62
61 63
61 64
61 67
61 69
61 70
61 71
61 80
61 82
62 63
62 67
62 68
63 64
63 67
63 69
63 70
63 71
64 65
64 66
64 67
64 69
64 70
64 71
64 72
64 76
64 78
64 81
64 82
65 66
67 68
67 69
67 70
67 71
67 78
67 80
67 81
67 82
68 74
69 70
69 71
69 81
70 71
70 75
70 78
70 80
70 81
70 82
71 74
71 76
71 77
71 84
71 78
71 85
71 82
72 73
72 76
72 78
72 79
72 83
74 76
74 77
76 77
76 78
76 84
76 82
77 84
78 79
78 80
78 81
78 82
78 85
79 83
80 81
80 82
81 82
